; 
(set-info :status unknown)
(declare-fun standard_metadata.ingress_port () (_ BitVec 9))
(declare-fun standard_metadata.egress_spec () (_ BitVec 9))
(declare-fun ethernet.dst_addr () (_ BitVec 48))
(assert
 (let (($x170 (= standard_metadata.ingress_port (_ bv19 9))))
 (let (($x165 (= standard_metadata.ingress_port (_ bv18 9))))
 (let (($x160 (= standard_metadata.ingress_port (_ bv17 9))))
 (let (($x155 (= standard_metadata.ingress_port (_ bv16 9))))
 (let (($x150 (= standard_metadata.ingress_port (_ bv15 9))))
 (let (($x145 (= standard_metadata.ingress_port (_ bv14 9))))
 (let (($x140 (= standard_metadata.ingress_port (_ bv13 9))))
 (let (($x135 (= standard_metadata.ingress_port (_ bv12 9))))
 (let (($x130 (= standard_metadata.ingress_port (_ bv11 9))))
 (let (($x125 (= standard_metadata.ingress_port (_ bv10 9))))
 (let (($x120 (= standard_metadata.ingress_port (_ bv9 9))))
 (let (($x115 (= standard_metadata.ingress_port (_ bv8 9))))
 (let (($x110 (= standard_metadata.ingress_port (_ bv7 9))))
 (let (($x105 (= standard_metadata.ingress_port (_ bv6 9))))
 (let (($x100 (= standard_metadata.ingress_port (_ bv5 9))))
 (let (($x95 (= standard_metadata.ingress_port (_ bv4 9))))
 (let (($x90 (= standard_metadata.ingress_port (_ bv3 9))))
 (let (($x85 (= standard_metadata.ingress_port (_ bv2 9))))
 (let (($x80 (= standard_metadata.ingress_port (_ bv1 9))))
 (let (($x86 (or (or (or false (= standard_metadata.ingress_port (_ bv0 9))) $x80) $x85)))
 (let (($x121 (or (or (or (or (or (or (or $x86 $x90) $x95) $x100) $x105) $x110) $x115) $x120)))
 (let (($x156 (or (or (or (or (or (or (or $x121 $x125) $x130) $x135) $x140) $x145) $x150) $x155)))
 (or (or (or $x156 $x160) $x165) $x170))))))))))))))))))))))))
(assert
 (let (($x37 (bvugt standard_metadata.ingress_port (concat (_ bv0 5) (_ bv15 4)))))
 (let (($x31 (bvugt standard_metadata.ingress_port (concat (_ bv0 5) (_ bv10 4)))))
 (let (($x33 (and true $x31)))
 (let (($x39 (and $x33 $x37)))
 (let (($x40 (and $x33 (not $x37))))
 (let (($x50 (bvugt standard_metadata.ingress_port (concat (_ bv0 6) (_ bv5 3)))))
 (let (($x34 (and true (not $x31))))
 (let (($x52 (and $x34 $x50)))
 (let ((?x54 (ite $x52 (_ bv511 9) (ite $x40 (_ bv511 9) (ite $x39 (_ bv511 9) standard_metadata.egress_spec)))))
 (let (($x53 (and $x34 (not $x50))))
 (let ((?x66 (ite (and true (not (and true (= ethernet.dst_addr (_ bv1 48))))) (_ bv511 9) (ite $x53 (_ bv511 9) ?x54))))
 (let (($x61 (= ethernet.dst_addr (_ bv1 48))))
 (let (($x62 (and true $x61)))
 (let (($x63 (and true $x62)))
 (let ((?x71 (ite $x63 (_ bv1 9) ?x66)))
 (let (($x93 (or (or (or (or false (= ?x71 (_ bv0 9))) (= ?x71 (_ bv1 9))) (= ?x71 (_ bv2 9))) (= ?x71 (_ bv3 9)))))
 (let (($x113 (or (or (or (or $x93 (= ?x71 (_ bv4 9))) (= ?x71 (_ bv5 9))) (= ?x71 (_ bv6 9))) (= ?x71 (_ bv7 9)))))
 (let (($x133 (or (or (or (or $x113 (= ?x71 (_ bv8 9))) (= ?x71 (_ bv9 9))) (= ?x71 (_ bv10 9))) (= ?x71 (_ bv11 9)))))
 (let (($x153 (or (or (or (or $x133 (= ?x71 (_ bv12 9))) (= ?x71 (_ bv13 9))) (= ?x71 (_ bv14 9))) (= ?x71 (_ bv15 9)))))
 (let (($x173 (or (or (or (or $x153 (= ?x71 (_ bv16 9))) (= ?x71 (_ bv17 9))) (= ?x71 (_ bv18 9))) (= ?x71 (_ bv19 9)))))
 (let (($x73 (= ?x71 (_ bv511 9))))
 (or $x73 $x173)))))))))))))))))))))))
(assert
 (let (($x50 (bvugt standard_metadata.ingress_port (concat (_ bv0 6) (_ bv5 3)))))
 (let (($x34 (and true (not (bvugt standard_metadata.ingress_port (concat (_ bv0 5) (_ bv10 4)))))))
 (let (($x52 (and $x34 $x50)))
 (let (($x37 (bvugt standard_metadata.ingress_port (concat (_ bv0 5) (_ bv15 4)))))
 (let (($x31 (bvugt standard_metadata.ingress_port (concat (_ bv0 5) (_ bv10 4)))))
 (let (($x33 (and true $x31)))
 (let (($x39 (and $x33 $x37)))
 (let (($x58 (ite $x31 (ite $x37 $x39 false) (ite $x50 $x52 false))))
 (let (($x40 (and $x33 (not $x37))))
 (let ((?x54 (ite $x52 (_ bv511 9) (ite $x40 (_ bv511 9) (ite $x39 (_ bv511 9) standard_metadata.egress_spec)))))
 (let (($x53 (and $x34 (not $x50))))
 (let ((?x66 (ite (and true (not (and true (= ethernet.dst_addr (_ bv1 48))))) (_ bv511 9) (ite $x53 (_ bv511 9) ?x54))))
 (let (($x61 (= ethernet.dst_addr (_ bv1 48))))
 (let (($x62 (and true $x61)))
 (let (($x63 (and true $x62)))
 (let ((?x71 (ite $x63 (_ bv1 9) ?x66)))
 (let (($x73 (= ?x71 (_ bv511 9))))
 (and (and (not $x73) $x58) (= (- 1) (- 1)))))))))))))))))))))
(check-sat)

; 
(set-info :status unknown)
(declare-fun standard_metadata.ingress_port () (_ BitVec 9))
(declare-fun standard_metadata.egress_spec () (_ BitVec 9))
(declare-fun ethernet.dst_addr () (_ BitVec 48))
(assert
 (let (($x170 (= standard_metadata.ingress_port (_ bv19 9))))
 (let (($x165 (= standard_metadata.ingress_port (_ bv18 9))))
 (let (($x160 (= standard_metadata.ingress_port (_ bv17 9))))
 (let (($x155 (= standard_metadata.ingress_port (_ bv16 9))))
 (let (($x150 (= standard_metadata.ingress_port (_ bv15 9))))
 (let (($x145 (= standard_metadata.ingress_port (_ bv14 9))))
 (let (($x140 (= standard_metadata.ingress_port (_ bv13 9))))
 (let (($x135 (= standard_metadata.ingress_port (_ bv12 9))))
 (let (($x130 (= standard_metadata.ingress_port (_ bv11 9))))
 (let (($x125 (= standard_metadata.ingress_port (_ bv10 9))))
 (let (($x120 (= standard_metadata.ingress_port (_ bv9 9))))
 (let (($x115 (= standard_metadata.ingress_port (_ bv8 9))))
 (let (($x110 (= standard_metadata.ingress_port (_ bv7 9))))
 (let (($x105 (= standard_metadata.ingress_port (_ bv6 9))))
 (let (($x100 (= standard_metadata.ingress_port (_ bv5 9))))
 (let (($x95 (= standard_metadata.ingress_port (_ bv4 9))))
 (let (($x90 (= standard_metadata.ingress_port (_ bv3 9))))
 (let (($x85 (= standard_metadata.ingress_port (_ bv2 9))))
 (let (($x80 (= standard_metadata.ingress_port (_ bv1 9))))
 (let (($x86 (or (or (or false (= standard_metadata.ingress_port (_ bv0 9))) $x80) $x85)))
 (let (($x121 (or (or (or (or (or (or (or $x86 $x90) $x95) $x100) $x105) $x110) $x115) $x120)))
 (let (($x156 (or (or (or (or (or (or (or $x121 $x125) $x130) $x135) $x140) $x145) $x150) $x155)))
 (or (or (or $x156 $x160) $x165) $x170))))))))))))))))))))))))
(assert
 (let (($x37 (bvugt standard_metadata.ingress_port (concat (_ bv0 5) (_ bv15 4)))))
 (let (($x31 (bvugt standard_metadata.ingress_port (concat (_ bv0 5) (_ bv10 4)))))
 (let (($x33 (and true $x31)))
 (let (($x39 (and $x33 $x37)))
 (let (($x40 (and $x33 (not $x37))))
 (let (($x50 (bvugt standard_metadata.ingress_port (concat (_ bv0 6) (_ bv5 3)))))
 (let (($x34 (and true (not $x31))))
 (let (($x52 (and $x34 $x50)))
 (let ((?x54 (ite $x52 (_ bv511 9) (ite $x40 (_ bv511 9) (ite $x39 (_ bv511 9) standard_metadata.egress_spec)))))
 (let (($x53 (and $x34 (not $x50))))
 (let ((?x66 (ite (and true (not (and true (= ethernet.dst_addr (_ bv1 48))))) (_ bv511 9) (ite $x53 (_ bv511 9) ?x54))))
 (let (($x61 (= ethernet.dst_addr (_ bv1 48))))
 (let (($x62 (and true $x61)))
 (let (($x63 (and true $x62)))
 (let ((?x71 (ite $x63 (_ bv1 9) ?x66)))
 (let (($x93 (or (or (or (or false (= ?x71 (_ bv0 9))) (= ?x71 (_ bv1 9))) (= ?x71 (_ bv2 9))) (= ?x71 (_ bv3 9)))))
 (let (($x113 (or (or (or (or $x93 (= ?x71 (_ bv4 9))) (= ?x71 (_ bv5 9))) (= ?x71 (_ bv6 9))) (= ?x71 (_ bv7 9)))))
 (let (($x133 (or (or (or (or $x113 (= ?x71 (_ bv8 9))) (= ?x71 (_ bv9 9))) (= ?x71 (_ bv10 9))) (= ?x71 (_ bv11 9)))))
 (let (($x153 (or (or (or (or $x133 (= ?x71 (_ bv12 9))) (= ?x71 (_ bv13 9))) (= ?x71 (_ bv14 9))) (= ?x71 (_ bv15 9)))))
 (let (($x173 (or (or (or (or $x153 (= ?x71 (_ bv16 9))) (= ?x71 (_ bv17 9))) (= ?x71 (_ bv18 9))) (= ?x71 (_ bv19 9)))))
 (let (($x73 (= ?x71 (_ bv511 9))))
 (or $x73 $x173)))))))))))))))))))))))
(assert
 (let (($x34 (and true (not (bvugt standard_metadata.ingress_port (concat (_ bv0 5) (_ bv10 4)))))))
 (let (($x53 (and $x34 (not (bvugt standard_metadata.ingress_port (concat (_ bv0 6) (_ bv5 3)))))))
 (let (($x50 (bvugt standard_metadata.ingress_port (concat (_ bv0 6) (_ bv5 3)))))
 (let (($x31 (bvugt standard_metadata.ingress_port (concat (_ bv0 5) (_ bv10 4)))))
 (let (($x33 (and true $x31)))
 (let (($x40 (and $x33 (not (bvugt standard_metadata.ingress_port (concat (_ bv0 5) (_ bv15 4)))))))
 (let (($x37 (bvugt standard_metadata.ingress_port (concat (_ bv0 5) (_ bv15 4)))))
 (let (($x59 (ite $x31 (ite $x37 false $x40) (ite $x50 false $x53))))
 (let ((?x44 (ite $x40 (_ bv511 9) (ite (and $x33 $x37) (_ bv511 9) standard_metadata.egress_spec))))
 (let (($x52 (and $x34 $x50)))
 (let ((?x66 (ite (and true (not (and true (= ethernet.dst_addr (_ bv1 48))))) (_ bv511 9) (ite $x53 (_ bv511 9) (ite $x52 (_ bv511 9) ?x44)))))
 (let (($x61 (= ethernet.dst_addr (_ bv1 48))))
 (let (($x62 (and true $x61)))
 (let (($x63 (and true $x62)))
 (let ((?x71 (ite $x63 (_ bv1 9) ?x66)))
 (let (($x73 (= ?x71 (_ bv511 9))))
 (and (and (not $x73) $x59) (= (- 1) (- 1))))))))))))))))))))
(check-sat)

; 
(set-info :status unknown)
(declare-fun standard_metadata.ingress_port () (_ BitVec 9))
(declare-fun standard_metadata.egress_spec () (_ BitVec 9))
(declare-fun ethernet.dst_addr () (_ BitVec 48))
(assert
 (let (($x170 (= standard_metadata.ingress_port (_ bv19 9))))
 (let (($x165 (= standard_metadata.ingress_port (_ bv18 9))))
 (let (($x160 (= standard_metadata.ingress_port (_ bv17 9))))
 (let (($x155 (= standard_metadata.ingress_port (_ bv16 9))))
 (let (($x150 (= standard_metadata.ingress_port (_ bv15 9))))
 (let (($x145 (= standard_metadata.ingress_port (_ bv14 9))))
 (let (($x140 (= standard_metadata.ingress_port (_ bv13 9))))
 (let (($x135 (= standard_metadata.ingress_port (_ bv12 9))))
 (let (($x130 (= standard_metadata.ingress_port (_ bv11 9))))
 (let (($x125 (= standard_metadata.ingress_port (_ bv10 9))))
 (let (($x120 (= standard_metadata.ingress_port (_ bv9 9))))
 (let (($x115 (= standard_metadata.ingress_port (_ bv8 9))))
 (let (($x110 (= standard_metadata.ingress_port (_ bv7 9))))
 (let (($x105 (= standard_metadata.ingress_port (_ bv6 9))))
 (let (($x100 (= standard_metadata.ingress_port (_ bv5 9))))
 (let (($x95 (= standard_metadata.ingress_port (_ bv4 9))))
 (let (($x90 (= standard_metadata.ingress_port (_ bv3 9))))
 (let (($x85 (= standard_metadata.ingress_port (_ bv2 9))))
 (let (($x80 (= standard_metadata.ingress_port (_ bv1 9))))
 (let (($x86 (or (or (or false (= standard_metadata.ingress_port (_ bv0 9))) $x80) $x85)))
 (let (($x121 (or (or (or (or (or (or (or $x86 $x90) $x95) $x100) $x105) $x110) $x115) $x120)))
 (let (($x156 (or (or (or (or (or (or (or $x121 $x125) $x130) $x135) $x140) $x145) $x150) $x155)))
 (or (or (or $x156 $x160) $x165) $x170))))))))))))))))))))))))
(assert
 (let (($x37 (bvugt standard_metadata.ingress_port (concat (_ bv0 5) (_ bv15 4)))))
 (let (($x31 (bvugt standard_metadata.ingress_port (concat (_ bv0 5) (_ bv10 4)))))
 (let (($x33 (and true $x31)))
 (let (($x39 (and $x33 $x37)))
 (let (($x40 (and $x33 (not $x37))))
 (let (($x50 (bvugt standard_metadata.ingress_port (concat (_ bv0 6) (_ bv5 3)))))
 (let (($x34 (and true (not $x31))))
 (let (($x52 (and $x34 $x50)))
 (let ((?x54 (ite $x52 (_ bv511 9) (ite $x40 (_ bv511 9) (ite $x39 (_ bv511 9) standard_metadata.egress_spec)))))
 (let (($x53 (and $x34 (not $x50))))
 (let ((?x66 (ite (and true (not (and true (= ethernet.dst_addr (_ bv1 48))))) (_ bv511 9) (ite $x53 (_ bv511 9) ?x54))))
 (let (($x61 (= ethernet.dst_addr (_ bv1 48))))
 (let (($x62 (and true $x61)))
 (let (($x63 (and true $x62)))
 (let ((?x71 (ite $x63 (_ bv1 9) ?x66)))
 (let (($x93 (or (or (or (or false (= ?x71 (_ bv0 9))) (= ?x71 (_ bv1 9))) (= ?x71 (_ bv2 9))) (= ?x71 (_ bv3 9)))))
 (let (($x113 (or (or (or (or $x93 (= ?x71 (_ bv4 9))) (= ?x71 (_ bv5 9))) (= ?x71 (_ bv6 9))) (= ?x71 (_ bv7 9)))))
 (let (($x133 (or (or (or (or $x113 (= ?x71 (_ bv8 9))) (= ?x71 (_ bv9 9))) (= ?x71 (_ bv10 9))) (= ?x71 (_ bv11 9)))))
 (let (($x153 (or (or (or (or $x133 (= ?x71 (_ bv12 9))) (= ?x71 (_ bv13 9))) (= ?x71 (_ bv14 9))) (= ?x71 (_ bv15 9)))))
 (let (($x173 (or (or (or (or $x153 (= ?x71 (_ bv16 9))) (= ?x71 (_ bv17 9))) (= ?x71 (_ bv18 9))) (= ?x71 (_ bv19 9)))))
 (let (($x73 (= ?x71 (_ bv511 9))))
 (or $x73 $x173)))))))))))))))))))))))
(assert
 (let (($x61 (= ethernet.dst_addr (_ bv1 48))))
 (let (($x62 (and true $x61)))
 (let (($x63 (and true $x62)))
 (let ((?x68 (ite $x63 0 (- 1))))
 (let (($x37 (bvugt standard_metadata.ingress_port (concat (_ bv0 5) (_ bv15 4)))))
 (let (($x31 (bvugt standard_metadata.ingress_port (concat (_ bv0 5) (_ bv10 4)))))
 (let (($x33 (and true $x31)))
 (let (($x39 (and $x33 $x37)))
 (let (($x40 (and $x33 (not $x37))))
 (let (($x50 (bvugt standard_metadata.ingress_port (concat (_ bv0 6) (_ bv5 3)))))
 (let (($x34 (and true (not $x31))))
 (let (($x52 (and $x34 $x50)))
 (let ((?x54 (ite $x52 (_ bv511 9) (ite $x40 (_ bv511 9) (ite $x39 (_ bv511 9) standard_metadata.egress_spec)))))
 (let (($x53 (and $x34 (not $x50))))
 (let ((?x71 (ite $x63 (_ bv1 9) (ite (and true (not $x62)) (_ bv511 9) (ite $x53 (_ bv511 9) ?x54)))))
 (let (($x73 (= ?x71 (_ bv511 9))))
 (and (and (not $x73) true) (= ?x68 (- 1))))))))))))))))))))
(check-sat)

; 
(set-info :status unknown)
(declare-fun standard_metadata.ingress_port () (_ BitVec 9))
(declare-fun standard_metadata.egress_spec () (_ BitVec 9))
(declare-fun ethernet.dst_addr () (_ BitVec 48))
(assert
 (let (($x170 (= standard_metadata.ingress_port (_ bv19 9))))
 (let (($x165 (= standard_metadata.ingress_port (_ bv18 9))))
 (let (($x160 (= standard_metadata.ingress_port (_ bv17 9))))
 (let (($x155 (= standard_metadata.ingress_port (_ bv16 9))))
 (let (($x150 (= standard_metadata.ingress_port (_ bv15 9))))
 (let (($x145 (= standard_metadata.ingress_port (_ bv14 9))))
 (let (($x140 (= standard_metadata.ingress_port (_ bv13 9))))
 (let (($x135 (= standard_metadata.ingress_port (_ bv12 9))))
 (let (($x130 (= standard_metadata.ingress_port (_ bv11 9))))
 (let (($x125 (= standard_metadata.ingress_port (_ bv10 9))))
 (let (($x120 (= standard_metadata.ingress_port (_ bv9 9))))
 (let (($x115 (= standard_metadata.ingress_port (_ bv8 9))))
 (let (($x110 (= standard_metadata.ingress_port (_ bv7 9))))
 (let (($x105 (= standard_metadata.ingress_port (_ bv6 9))))
 (let (($x100 (= standard_metadata.ingress_port (_ bv5 9))))
 (let (($x95 (= standard_metadata.ingress_port (_ bv4 9))))
 (let (($x90 (= standard_metadata.ingress_port (_ bv3 9))))
 (let (($x85 (= standard_metadata.ingress_port (_ bv2 9))))
 (let (($x80 (= standard_metadata.ingress_port (_ bv1 9))))
 (let (($x86 (or (or (or false (= standard_metadata.ingress_port (_ bv0 9))) $x80) $x85)))
 (let (($x121 (or (or (or (or (or (or (or $x86 $x90) $x95) $x100) $x105) $x110) $x115) $x120)))
 (let (($x156 (or (or (or (or (or (or (or $x121 $x125) $x130) $x135) $x140) $x145) $x150) $x155)))
 (or (or (or $x156 $x160) $x165) $x170))))))))))))))))))))))))
(assert
 (let (($x37 (bvugt standard_metadata.ingress_port (concat (_ bv0 5) (_ bv15 4)))))
 (let (($x31 (bvugt standard_metadata.ingress_port (concat (_ bv0 5) (_ bv10 4)))))
 (let (($x33 (and true $x31)))
 (let (($x39 (and $x33 $x37)))
 (let (($x40 (and $x33 (not $x37))))
 (let (($x50 (bvugt standard_metadata.ingress_port (concat (_ bv0 6) (_ bv5 3)))))
 (let (($x34 (and true (not $x31))))
 (let (($x52 (and $x34 $x50)))
 (let ((?x54 (ite $x52 (_ bv511 9) (ite $x40 (_ bv511 9) (ite $x39 (_ bv511 9) standard_metadata.egress_spec)))))
 (let (($x53 (and $x34 (not $x50))))
 (let ((?x66 (ite (and true (not (and true (= ethernet.dst_addr (_ bv1 48))))) (_ bv511 9) (ite $x53 (_ bv511 9) ?x54))))
 (let (($x61 (= ethernet.dst_addr (_ bv1 48))))
 (let (($x62 (and true $x61)))
 (let (($x63 (and true $x62)))
 (let ((?x71 (ite $x63 (_ bv1 9) ?x66)))
 (let (($x93 (or (or (or (or false (= ?x71 (_ bv0 9))) (= ?x71 (_ bv1 9))) (= ?x71 (_ bv2 9))) (= ?x71 (_ bv3 9)))))
 (let (($x113 (or (or (or (or $x93 (= ?x71 (_ bv4 9))) (= ?x71 (_ bv5 9))) (= ?x71 (_ bv6 9))) (= ?x71 (_ bv7 9)))))
 (let (($x133 (or (or (or (or $x113 (= ?x71 (_ bv8 9))) (= ?x71 (_ bv9 9))) (= ?x71 (_ bv10 9))) (= ?x71 (_ bv11 9)))))
 (let (($x153 (or (or (or (or $x133 (= ?x71 (_ bv12 9))) (= ?x71 (_ bv13 9))) (= ?x71 (_ bv14 9))) (= ?x71 (_ bv15 9)))))
 (let (($x173 (or (or (or (or $x153 (= ?x71 (_ bv16 9))) (= ?x71 (_ bv17 9))) (= ?x71 (_ bv18 9))) (= ?x71 (_ bv19 9)))))
 (let (($x73 (= ?x71 (_ bv511 9))))
 (or $x73 $x173)))))))))))))))))))))))
(assert
 (let (($x61 (= ethernet.dst_addr (_ bv1 48))))
 (let (($x62 (and true $x61)))
 (let (($x63 (and true $x62)))
 (let ((?x68 (ite $x63 0 (- 1))))
 (let (($x37 (bvugt standard_metadata.ingress_port (concat (_ bv0 5) (_ bv15 4)))))
 (let (($x31 (bvugt standard_metadata.ingress_port (concat (_ bv0 5) (_ bv10 4)))))
 (let (($x33 (and true $x31)))
 (let (($x39 (and $x33 $x37)))
 (let (($x40 (and $x33 (not $x37))))
 (let (($x50 (bvugt standard_metadata.ingress_port (concat (_ bv0 6) (_ bv5 3)))))
 (let (($x34 (and true (not $x31))))
 (let (($x52 (and $x34 $x50)))
 (let ((?x54 (ite $x52 (_ bv511 9) (ite $x40 (_ bv511 9) (ite $x39 (_ bv511 9) standard_metadata.egress_spec)))))
 (let (($x53 (and $x34 (not $x50))))
 (let ((?x71 (ite $x63 (_ bv1 9) (ite (and true (not $x62)) (_ bv511 9) (ite $x53 (_ bv511 9) ?x54)))))
 (let (($x73 (= ?x71 (_ bv511 9))))
 (let (($x269 (and (not $x73) true)))
 (and $x269 (= ?x68 0))))))))))))))))))))
(check-sat)

